proyfinal/src/viki/013/experimentInOfficeAgust.take6.output/6d906488-7b78-45da-b5d2-ac26260ab023.als.out
Reading from standard input... Use '--help' for help.
============================[ Problem Statistics ]=============================
|                                                                             |
|  Number of variables:         87638                                         |
|  Number of clauses:          161767                                         |
|  Parse time:                   0.04 s                                       |
|                                                                             |
============================[ Search Statistics ]==============================
| Conflicts |          ORIGINAL         |          LEARNT          | Progress |
|           |    Vars  Clauses Literals |    Limit  Clauses Lit/Cl |          |
===============================================================================
|       100 |   62640   106080   265235 |    38896      100      7 | 28.524 % |
|       250 |   62640   106080   265235 |    42785      250     21 | 28.524 % |
|       475 |   62568   106047   265151 |    47064      466     61 | 28.606 % |
|       812 |   62568   105816   264535 |    51770      757     65 | 28.606 % |
|      1318 |   43945    50799   129491 |    56947     1201     58 | 49.856 % |
|      2077 |   43937    50721   129281 |    62642     1792     48 | 49.865 % |
===============================================================================
restarts              : 15
conflicts             : 2747           (10084 /sec)
decisions             : 12217          (0.00 % random) (44849 /sec)
propagations          : 3687559        (13537245 /sec)
conflict literals     : 118072         (26.09 % deleted)
Memory used           : 25.27 MB
CPU time              : 0.272401 s

UNSATISFIABLE
